(declare-fun bvlambda_11_ ()Bool         )
(declare-fun a92 () (Array (_ BitVec 1) (_ BitVec 4)))
(assert
(let (($e22 (_ bv12 4)))
(let (($e23 (_ bv0 4)))
(let (($e159 (store a92 true               $e22 )))
(let (($e160 (store $e159 bvlambda_11_ $e23)))
(
                 extract(select $e160 true)
                                                                                                                                                                                                                                                                                                                                                                                                                                                                                                                                                                       )))                                                                                                           ))                     )
